c Random generated cnf formula, satisfiable: false
p cnf 10 50
-3 -5 8 0
-7 -3 -9 0
8 -5 -10 0
10 -2 -4 0
9 -2 6 0
-7 10 -6 0
2 -8 1 0
-10 -1 -3 0
-4 6 5 0
-10 -7 4 0
-7 2 8 0
6 2 4 0
-7 -8 6 0
5 4 3 0
4 5 -8 0
1 5 -10 0
-1 -5 10 0
10 -8 2 0
-6 2 5 0
4 -7 -9 0
6 -4 -1 0
-3 5 4 0
3 10 2 0
-8 2 3 0
-8 4 -1 0
-1 -2 10 0
7 -10 -4 0
-4 5 -7 0
-10 -7 -9 0
3 9 8 0
-2 3 1 0
10 5 4 0
9 -4 -7 0
-9 2 -10 0
-1 5 -9 0
-8 -2 1 0
3 -9 -5 0
-5 -10 -8 0
-6 5 1 0
3 6 -7 0
-3 1 6 0
10 1 6 0
-8 4 3 0
1 3 -7 0
2 -4 8 0
10 7 9 0
-4 -3 -5 0
5 8 10 0
-4 -2 -3 0
-3 10 6 0
